# Solution for model r3_t9_m6_8
# Finished Task: 9 / 9
# Makespan: 521.0, Total Distance: 307.0, Total Time: 0.8823
# R O S F
0 0 10 0.0 0.0
1 1 3 0.0 0.0
2 2 11 6.0 6.0
3 1 9 237.0 267.0
4 2 -1 499.0 521.0
5 0 -1 492.0 521.0
6 2 8 382.0 410.0
7 1 -1 410.0 430.0
8 2 4 463.0 483.0
9 1 7 346.0 383.0
10 0 5 430.0 463.0
11 2 6 267.0 300.0
